
Gurobi 8.1.0 (win64, Python) logging started 11/24/18 14:18:18

Academic license - for non-commercial use only
Changed value of parameter lazyConstraints to 1
   Prev: 0  Min: 0  Max: 1  Default: 0
Optimize a model with 20 rows, 190 columns and 380 nonzeros
Variable types: 0 continuous, 190 integer (190 binary)
Coefficient statistics:
  Matrix range     [1e+00, 1e+00]
  Objective range  [8e+00, 1e+02]
  Bounds range     [1e+00, 1e+00]
  RHS range        [2e+00, 2e+00]
Presolve time: 0.02s
Presolved: 20 rows, 190 columns, 380 nonzeros
Variable types: 0 continuous, 190 integer (190 binary)

Root relaxation: objective 3.237331e+02, 27 iterations, 0.02 seconds

    Nodes    |    Current Node    |     Objective Bounds      |     Work
 Expl Unexpl |  Obj  Depth IntInf | Incumbent    BestBd   Gap | It/Node Time

     0     0  341.47512    0    6          -  341.47512      -     -    0s
     0     0  362.15504    0    6          -  362.15504      -     -    0s
     0     0  378.66736    0    6          -  378.66736      -     -    0s
*    0     0               0     381.0261677  381.02617  0.00%     -    0s

Cutting planes:
  Gomory: 1
  MIR: 1
  Zero half: 4
  Lazy constraints: 11

Explored 1 nodes (54 simplex iterations) in 0.16 seconds
Thread count was 4 (of 4 available processors)

Solution count 1: 381.026 

Optimal solution found (tolerance 1.00e-04)
Best objective 3.810261677310e+02, best bound 3.810261677310e+02, gap 0.0000%
